TITLE:
Round2E SYNTHETIC_SD_E0_01_smoke
DATA:
FILE = "data.dat";
VARIABLE:
NAMES = fid x1 x2 x3 x4 x5 y1 y2 y3 y4 y5 z1 z2 z3 z4 z5 z0 gedu gurb ginc c1 c2 c3 c4
  c5 c6 c7 c8 c9 c10 c11 c12 c13 c14 c15 c16 c17 c18 c19 c20 c21 c22 c23 c24;
 MISSING=.;
 CLUSTER=fid; USEVARIABLES=x1-x5 y1-y5 z0 c1-c3;
ANALYSIS:
TYPE=COMPLEX; ESTIMATOR=MLR; PROCESSORS=1; COVERAGE=.005; ITERATIONS=2000;
MODEL:
ix sx | x1@0 x2*0.4 x3*0.6 x4*0.8 x5@1 ;
iy sy | y1@0 y2@0.4 y3@0.6 y4@0.8 y5@1 ;
iy ON ix (bii);
sy ON ix (bis);
sy ON sx (bss);
sy ON iy (bsyiy);
ix WITH sx;
ix sx iy sy ON c1-c3;
sx WITH iy;
x1 WITH y1;
x2 WITH y2;
x3 WITH y3;
x4 WITH y4;
x5 WITH y5;
ix sx ON z0;
iy ON z0 (gi0);
sy ON z0 (gs0);
x1 y1 ON z0;
sx BY x2*0.4;
sx BY x3*0.6;
sx BY x4*0.8;
[ix*0];
[sx*0];
[iy*0];
[sy*0];
x1*0.5;
x2*0.5;
x3*0.5;
x4*0.5;
x5*0.5;
y1*0.5;
y2*0.5;
y3*0.5;
y4*0.5;
y5*0.5;
ix*0.1;
sx*0.1;
iy*0.1;
sy*0.1;
iy ON ix*0;
sy ON ix*0;
sy ON sx*0;
sy ON iy*0;
ix WITH sx*0;
ix ON c1*0;
sx ON c1*0;
iy ON c1*0;
sy ON c1*0;
ix ON c2*0;
sx ON c2*0;
iy ON c2*0;
sy ON c2*0;
ix ON c3*0;
sx ON c3*0;
iy ON c3*0;
sy ON c3*0;
iy WITH sx*0;
x1 WITH y1*0;
x2 WITH y2*0;
x3 WITH y3*0;
x4 WITH y4*0;
x5 WITH y5*0;
ix ON z0*0;
sx ON z0*0;
iy ON z0*0;
sy ON z0*0;
x1 ON z0*0;
y1 ON z0*0;
OUTPUT:
TECH1 TECH3 TECH4 SAMPSTAT RESIDUAL CINTERVAL SVALUES;
SAVEDATA:
TECH3=tech3.dat; RESULTS=estimates.dat;
