TITLE:
Class-1_pp_LGCA
DATA:
FILE = "lgca_process2_linear.dat";
 
VARIABLE:
NAMES = pid fid wfd_m10 wfd_s10 wfd_c10 wfd_d10 wfd_d110 wfd_d210 wfd_d310 wfd_d410
     wfd_d510 wfd_d610 wfd_d710 wfd_d810 wfd_d910 wfd_m12 wfd_s12 wfd_c12 wfd_d12
     wfd_d112 wfd_d212 wfd_d312 wfd_d412 wfd_d512 wfd_d612 wfd_d712 wfd_d812
     wfd_d912 wfd_m16 wfd_s16 wfd_c16 wfd_d16 wfd_d116 wfd_d216 wfd_d316 wfd_d416
     wfd_d516 wfd_d616 wfd_d716 wfd_d816 wfd_d916 wfd_m18 wfd_s18 wfd_c18 wfd_d18
     wfd_d118 wfd_d218 wfd_d318 wfd_d418 wfd_d518 wfd_d618 wfd_d718 wfd_d818
     wfd_d918 wfd_m20 wfd_s20 wfd_c20 wfd_d20 wfd_d120 wfd_d220 wfd_d320 wfd_d420
     wfd_d520 wfd_d620 wfd_d720 wfd_d820 wfd_d920 wfd_m22 wfd_s22 wfd_c22 wfd_d22
     wfd_d122 wfd_d222 wfd_d322 wfd_d422 wfd_d522 wfd_d622 wfd_d722 wfd_d822
     wfd_d922 sat10 sat12 sat14 sat16 sat18 sat20 sat22 ces812 ces816 ces818 ces820
     ces822 ces8sc12 ces8sc16 ces8sc18 ces8sc20 ces8sc22 wfdms10 wfdms12 wfdms16
     wfdms18 wfdms20 wfdms22 wfdss10 wfdss12 wfdss16 wfdss18 wfdss20 wfdss22 wfdcs10
     wfdcs12 wfdcs16 wfdcs18 wfdcs20 wfdcs22 wfdds10 wfdds12 wfdds16 wfdds18 wfdds20
     wfdds22 wfdds110 wfdds112 wfdds116 wfdds118 wfdds120 wfdds122 wfdds210 wfdds212
     wfdds216 wfdds218 wfdds220 wfdds222 wfdds310 wfdds312 wfdds316 wfdds318
     wfdds320 wfdds322 wfdds410 wfdds412 wfdds416 wfdds418 wfdds420 wfdds422
     wfdds510 wfdds512 wfdds516 wfdds518 wfdds520 wfdds522 wfdds610 wfdds612
     wfdds616 wfdds618 wfdds620 wfdds622 wfdds710 wfdds712 wfdds716 wfdds718
     wfdds720 wfdds722 wfdds810 wfdds812 wfdds816 wfdds818 wfdds820 wfdds822
     wfdds910 wfdds912 wfdds916 wfdds918 wfdds920 wfdds922 ces8sd12 ces8sd16
     ces8sd18 ces8sd20 ces8sd22 cohort wave sex12 edu12 urban12 prov12 prov122
     prov123 cdn12 cdar12 cdsc12 cdsc121 cdsc122 minor12 party12 age10 ageg10 pinc10
     pincm110 pincm210 cores10 heal10 heal101 heal103 marr10 eco10 eco102 eco103
     hwc10 hwc102 hwc103 hukou10 pinc210 finc10 age12 ageg12 pinc12 pincm112
     pincm212 cores12 heal12 heal121 heal123 marr12 eco12 eco122 eco123 hwc12 hwc122
     hwc123 hukou12 pinc212 pinc312 pinc412 finc12 age14 ageg14 pinc14 pincm114
     pincm214 cores14 heal14 heal141 heal143 marr14 hukou14 pinc214 finc14 age16
     ageg16 pinc16 pincm116 pincm216 cores16 heal16 heal161 heal163 marr16 eco16
     eco162 eco163 hwc16 hwc162 hwc163 hukou16 pinc216 finc16 age18 ageg18 pinc18
     pincm118 pincm218 cores18 heal18 heal181 heal183 marr18 eco18 eco182 eco183
     hwc18 hwc182 hwc183 hukou18 pinc218 finc18 age20 ageg20 pinc20 pincm120
     pincm220 cores20 heal20 heal201 heal203 marr20 eco20 eco202 eco203 hwc20 hwc202
     hwc203 hukou20 pinc220 finc20 age22 ageg22 pinc22 pincm122 pincm222 cores22
     heal22 heal221 heal223 marr22 eco22 eco222 eco223 hwc22 hwc222 hwc223 hukou22
     pinc222 finc22 consu110 fpinc10 employ10 heala110 heala210 heala310 heala410
     adl10 cog10 consu112 consu212 fpinc12 employ12 heala112 heala212 heala312
     heala412 adl12 consu114 consu214 fpinc14 employ14 heala114 heala214 heala314
     heala414 adl14 cog14 consu116 consu216 fpinc16 employ16 heala116 heala216
     heala316 heala416 adl16 consu118 consu218 fpinc18 employ18 heala118 heala218
     heala318 heala418 adl18 cog18 consu120 consu220 fpinc20 employ20 heala120
     heala220 heala320 heala420 adl20 consu122 consu222 fpinc22 employ22 heala122
     heala222 heala322 heala422 adl22 cog22; 
 MISSING=.;
 usevar = 
!wfd_m12 wfd_m16 wfd_m18 wfd_m20 wfd_m22 
wfd_s12 wfd_s16 wfd_s18 wfd_s20 wfd_s22
!wfd_d12 wfd_d16 wfd_d18 wfd_d20 wfd_d22
!wfd_d112 wfd_d116 wfd_d118 wfd_d120 wfd_d122
!ces812 ces816 ces818 ces820 ces822
;
ANALYSIS:
estimator = mlr;
!TYPE=COMPLEX;
!type = mixture;
!ALGORITHM=INTEGRATION;
!starts = 600 200;
!starts = 20;
!LRTBOOTSTRAP = 200;
processors = 10;
coverage = 0.005;
MODEL:

!i1 s1 | wfd_m12@0 wfd_m16@4 wfd_m18@6 wfd_m20@8 wfd_m22@10;
i2 s2 | wfd_s12@0 wfd_s16@4 wfd_s18@6 wfd_s20@8 wfd_s22@10; 
!i3 s3 | wfd_d12@0 wfd_d16@4 wfd_d18@6 wfd_d20@8 wfd_d22@10; 
!i4 s4 | wfd_d112@0 wfd_d116@4 wfd_d118@6 wfd_d120@8 wfd_d122@10;
!i5 s5 | ces812@0 ces816@4 ces818@6 ces820@8 ces822@10; 

OUTPUT:
tech1 tech4 sampstat patterns stdyx;
