TITLE:
Round2E CFPS_SD_E1_01_q15_repair
DATA:
FILE = "data.dat";
VARIABLE:
NAMES = fid x1 x2 x3 x4 x5 y1 y2 y3 y4 y5 z1 z2 z3 z4 z5 z0 gedu gurb ginc c1 c2 c3 c4
  c5 c6 c7 c8 c9 c10 c11 c12 c13 c14 c15 c16 c17 c18 c19 c20 c21 c22 c23 c24;
 MISSING=.;
 CLUSTER=fid; USEVARIABLES=x1-x5 y1-y5 z0 c1-c24;
ANALYSIS:
TYPE=COMPLEX RANDOM; ESTIMATOR=MLR; PROCESSORS=1;
ALGORITHM=INTEGRATION; INTEGRATION=15;
MCSEED=26101001; COVERAGE=.005; ITERATIONS=2000; MITERATIONS=4000;
MODEL:
ix sx | x1@0 x2*0.4 x3*0.6 x4*0.8 x5@1 ;
iy sy | y1@0 y2@0.4 y3@0.6 y4@0.8 y5@1 ;
iy ON ix (bii);
sy ON ix (bis);
sy ON sx (bss);
sy ON iy (bsyiy);
ix WITH sx;
ix sx iy sy ON c1-c24;
sx WITH iy;
x1 WITH y1;
x2 WITH y2;
x3 WITH y3;
x4 WITH y4;
x5 WITH y5;
ix sx ON z0;
iy ON z0 (gi0);
sy ON z0 (gs0);
x1 y1 ON z0;
sxz | sx XWITH z0;
sy ON sxz (dc);
sx BY x2*0.78969457;
sx BY x3*0.64753447;
sx BY x4*1.1439048;
[ix*-0.16548425];
[sx*0.22270954];
[iy*0.22005607];
[sy*-0.1077395];
x1*0.67806655;
x2*0.65763146;
x3*0.54787886;
x4*0.52745748;
x5*0.49812421;
y1*0.54991239;
y2*0.63583827;
y3*0.57518953;
y4*0.58306181;
y5*0.61072361;
ix*0.19245982;
sx*0.10563424;
iy*0.206021;
sy*0.033931792;
iy ON ix*-0.37889384;
sy ON ix*0.14461628;
sy ON sx*-0.33924537;
sy ON iy*0.43808423;
ix WITH sx*0.0062444187;
ix ON c1*-0.1614514;
sx ON c1*0.04572743;
iy ON c1*-0.24014141;
sy ON c1*0.059094217;
ix ON c2*0.06262118;
sx ON c2*0.005322465;
iy ON c2*-0.083494802;
sy ON c2*0.0292275348;
ix ON c3*-0.052209575;
sx ON c3*0.060131368;
iy ON c3*-0.18735172;
sy ON c3*0.112198268;
ix ON c4*-0.062951953;
sx ON c4*0.14169072;
iy ON c4*-0.083224703;
sy ON c4*0.21435757;
ix ON c5*-0.08075513;
sx ON c5*-0.001205934;
iy ON c5*0.21799816;
sy ON c5*-0.17519788;
ix ON c6*-0.007629236;
sx ON c6*-0.009730394;
iy ON c6*-0.0227631533;
sy ON c6*0.065562502;
ix ON c7*-0.02082103314;
sx ON c7*0.020033426768;
iy ON c7*-0.0123134856;
sy ON c7*0.004129099;
ix ON c8*-0.27704378;
sx ON c8*0.084345755;
iy ON c8*-0.066302039;
sy ON c8*0.072541889;
ix ON c9*0.060517255;
sx ON c9*0.041205707;
iy ON c9*0.08174943;
sy ON c9*-0.13516484;
ix ON c10*-0.111106892;
sx ON c10*-0.09227764;
iy ON c10*0.000549482;
sy ON c10*0.21271883;
ix ON c11*-0.074821327;
sx ON c11*0.0108009479;
iy ON c11*-0.14492973;
sy ON c11*0.28171172;
ix ON c12*-0.001309032;
sx ON c12*0.0281951646;
iy ON c12*-0.070690733;
sy ON c12*0.06007652;
ix ON c13*0.020491384;
sx ON c13*0.000810143;
iy ON c13*-0.033232592;
sy ON c13*0.05523377;
ix ON c14*-0.00178279;
sx ON c14*-0.014691572;
iy ON c14*0.072073627;
sy ON c14*-0.16091036;
ix ON c15*-0.031090619;
sx ON c15*0.037896298;
iy ON c15*0.46278379;
sy ON c15*-0.42317508;
ix ON c16*0.15739253;
sx ON c16*-0.044017102;
iy ON c16*-0.113851663;
sy ON c16*0.0231027817;
ix ON c17*0.053295891;
sx ON c17*0.087114994;
iy ON c17*-0.23219301;
sy ON c17*0.28784936;
ix ON c18*0.18842277;
sx ON c18*-0.08024502;
iy ON c18*0.015711393;
sy ON c18*0.053272061;
ix ON c19*0.033493023;
sx ON c19*-0.035148464;
iy ON c19*0.045278724;
sy ON c19*0.087093141;
ix ON c20*0.22439934;
sx ON c20*-0.064102347;
iy ON c20*0.074227679;
sy ON c20*-0.11710847;
ix ON c21*0.13779215;
sx ON c21*-0.036508143;
iy ON c21*0.015399299;
sy ON c21*0.0299369623;
ix ON c22*-0.11703093;
sx ON c22*0.14411925;
iy ON c22*-0.045172858;
sy ON c22*0.1853205;
ix ON c23*0.006262335;
sx ON c23*-0.045094866;
iy ON c23*0.10798797;
sy ON c23*-0.11627817;
ix ON c24*-0.0224416093;
sx ON c24*0.027693111;
iy ON c24*-0.031856764;
sy ON c24*0.0285515026;
iy WITH sx*-0.021857768;
x1 WITH y1*-0.017311016;
x2 WITH y2*-0.068092704;
x3 WITH y3*-0.049084421;
x4 WITH y4*-0.048931129;
x5 WITH y5*-0.028671192;
ix ON z0*-0.12884806;
sx ON z0*0.0127117475;
iy ON z0*-0.0262099234;
sy ON z0*0.053456299;
x1 ON z0*-0.15338441;
y1 ON z0*0.082464621;
sy ON sxz*-0.02;
OUTPUT:
TECH1 TECH3 TECH8 CINTERVAL SVALUES;
SAVEDATA:
TECH3=tech3.dat; RESULTS=estimates.dat;
